c     <#Vars> <#Clauses>
p cnf 127      1
127 0
c kripke <#Nodes> <#Edges> <#APs> <KripkeID>
kripke   9        72       6      0
c kedge <KripkeID> <from> <to> <edgevar>
kedge   0          0      1    1
kedge   0          0      2    2
kedge   0          0      3    3
kedge   0          0      4    4
kedge   0          0      5    5
kedge   0          0      6    6
kedge   0          0      7    7
kedge   0          0      8    8
kedge   0          1      0    9
kedge   0          1      2    10
kedge   0          1      3    11
kedge   0          1      4    12
kedge   0          1      5    13
kedge   0          1      6    14
kedge   0          1      7    15
kedge   0          1      8    16
kedge   0          2      0    17
kedge   0          2      1    18
kedge   0          2      3    19
kedge   0          2      4    20
kedge   0          2      5    21
kedge   0          2      6    22
kedge   0          2      7    23
kedge   0          2      8    24
kedge   0          3      0    25
kedge   0          3      1    26
kedge   0          3      2    27
kedge   0          3      4    28
kedge   0          3      5    29
kedge   0          3      6    30
kedge   0          3      7    31
kedge   0          3      8    32
kedge   0          4      0    33
kedge   0          4      1    34
kedge   0          4      2    35
kedge   0          4      3    36
kedge   0          4      5    37
kedge   0          4      6    38
kedge   0          4      7    39
kedge   0          4      8    40
kedge   0          5      0    41
kedge   0          5      1    42
kedge   0          5      2    43
kedge   0          5      3    44
kedge   0          5      4    45
kedge   0          5      6    46
kedge   0          5      7    47
kedge   0          5      8    48
kedge   0          6      0    49
kedge   0          6      1    50
kedge   0          6      2    51
kedge   0          6      3    52
kedge   0          6      4    53
kedge   0          6      5    54
kedge   0          6      7    55
kedge   0          6      8    56
kedge   0          7      0    57
kedge   0          7      1    58
kedge   0          7      2    59
kedge   0          7      3    60
kedge   0          7      4    61
kedge   0          7      5    62
kedge   0          7      6    63
kedge   0          7      8    64
kedge   0          8      0    65
kedge   0          8      1    66
kedge   0          8      2    67
kedge   0          8      3    68
kedge   0          8      4    69
kedge   0          8      5    70
kedge   0          8      6    71
kedge   0          8      7    72
c knodeap <KripkeID> <node> <ap> <nodeapvar>
knodeap   0          0      0    73
knodeap   0          0      1    74
knodeap   0          0      2    75
knodeap   0          0      3    76
knodeap   0          0      4    77
knodeap   0          0      5    78
knodeap   0          1      0    79
knodeap   0          1      1    80
knodeap   0          1      2    81
knodeap   0          1      3    82
knodeap   0          1      4    83
knodeap   0          1      5    84
knodeap   0          2      0    85
knodeap   0          2      1    86
knodeap   0          2      2    87
knodeap   0          2      3    88
knodeap   0          2      4    89
knodeap   0          2      5    90
knodeap   0          3      0    91
knodeap   0          3      1    92
knodeap   0          3      2    93
knodeap   0          3      3    94
knodeap   0          3      4    95
knodeap   0          3      5    96
knodeap   0          4      0    97
knodeap   0          4      1    98
knodeap   0          4      2    99
knodeap   0          4      3    100
knodeap   0          4      4    101
knodeap   0          4      5    102
knodeap   0          5      0    103
knodeap   0          5      1    104
knodeap   0          5      2    105
knodeap   0          5      3    106
knodeap   0          5      4    107
knodeap   0          5      5    108
knodeap   0          6      0    109
knodeap   0          6      1    110
knodeap   0          6      2    111
knodeap   0          6      3    112
knodeap   0          6      4    113
knodeap   0          6      5    114
knodeap   0          7      0    115
knodeap   0          7      1    116
knodeap   0          7      2    117
knodeap   0          7      3    118
knodeap   0          7      4    119
knodeap   0          7      5    120
knodeap   0          8      0    121
knodeap   0          8      1    122
knodeap   0          8      2    123
knodeap   0          8      3    124
knodeap   0          8      4    125
knodeap   0          8      5    126
c kctl <KripkeID> <initialnode> <ctlvar> <CTL formula>
kctl   0          0             127       ((0 AND 3) AND (AG NOT (2 AND 5) AND (AG (NOT 1 OR AF 2) AND (AG (0 OR (1 OR 2)) AND (AG (NOT 0 OR NOT (1 OR 2)) AND (AG (NOT 1 OR NOT (0 OR 2)) AND (AG (NOT 2 OR NOT (0 OR 1)) AND (AG (NOT 0 OR (EX (1 OR 0) AND EF 1)) AND (AG (NOT 1 OR AX (2 OR 1)) AND (AG (NOT 2 OR (EX (0 OR 2) AND EF 0)) AND AG (EX 0 OR EX NOT 0)))))))))))
kdraw

